<instance format="XCSP3" type="CSP">
  <variables>
    <array id="x" note="x represents the hexagon; on row x[i], only the first n - |n/2 - i| cells are useful (here, n = 11)." size="[11][11]"> 10..100 </array>
  </variables>
  <constraints>
    <allDifferent> x[][0] x[][1] x[][2] x[][3] x[][4] x[][5] x[1..2][6] x[2][7] x[3][6..8] x[4][6..9] x[5][6..10] x[6][6..9] x[7][6..8] x[8][6..7] x[9][6] </allDifferent>
    <group class="rows" note="All rows sum to the magic value">
      <sum>
        <list> %... </list>
        <condition> (eq,455) </condition>
      </sum>
      <args> x[0][0..5] </args>
      <args> x[1][0..6] </args>
      <args> x[2][0..7] </args>
      <args> x[3][0..8] </args>
      <args> x[4][0..9] </args>
      <args> x[5][] </args>
      <args> x[6][0..9] </args>
      <args> x[7][0..8] </args>
      <args> x[8][0..7] </args>
      <args> x[9][0..6] </args>
      <args> x[10][0..5] </args>
    </group>
    <group class="rightDiagonals" note="All right-sloping diagonals sum to the magic value">
      <sum>
        <list> %... </list>
        <condition> (eq,455) </condition>
      </sum>
      <args> x[5..10][0] </args>
      <args> x[4][0] x[5..10][1] </args>
      <args> x[3][0] x[4][1] x[5..10][2] </args>
      <args> x[2][0] x[3][1] x[4][2] x[5..10][3] </args>
      <args> x[1][0] x[2][1] x[3][2] x[4][3] x[5..10][4] </args>
      <args> x[0][0] x[1][1] x[2][2] x[3][3] x[4][4] x[5..10][5] </args>
      <args> x[0][1] x[1][2] x[2][3] x[3][4] x[4][5] x[5..9][6] </args>
      <args> x[0][2] x[1][3] x[2][4] x[3][5] x[4][6] x[5..8][7] </args>
      <args> x[0][3] x[1][4] x[2][5] x[3][6] x[4][7] x[5..7][8] </args>
      <args> x[0][4] x[1][5] x[2][6] x[3][7] x[4][8] x[5..6][9] </args>
      <args> x[0][5] x[1][6] x[2][7] x[3][8] x[4][9] x[5][10] </args>
    </group>
    <group class="leftDiagonals" note="All left-sloping diagonals sum to the magic value">
      <sum>
        <list> %... </list>
        <condition> (eq,455) </condition>
      </sum>
      <args> x[0..5][0] </args>
      <args> x[0..5][1] x[6][0] </args>
      <args> x[0..5][2] x[6][1] x[7][0] </args>
      <args> x[0..5][3] x[6][2] x[7][1] x[8][0] </args>
      <args> x[0..5][4] x[6][3] x[7][2] x[8][1] x[9][0] </args>
      <args> x[0..5][5] x[6][4] x[7][3] x[8][2] x[9][1] x[10][0] </args>
      <args> x[1..5][6] x[6][5] x[7][4] x[8][3] x[9][2] x[10][1] </args>
      <args> x[2..5][7] x[6][6] x[7][5] x[8][4] x[9][3] x[10][2] </args>
      <args> x[3..5][8] x[6][7] x[7][6] x[8][5] x[9][4] x[10][3] </args>
      <args> x[4..5][9] x[6][8] x[7][7] x[8][6] x[9][5] x[10][4] </args>
      <args> x[5][10] x[6][9] x[7][8] x[8][7] x[9][6] x[10][5] </args>
    </group>
    <group class="symmetryBreaking">
      <intension> lt(%0,%1) </intension>
      <args> x[0][0] x[0][5] </args>
      <args> x[0][0] x[5][10] </args>
      <args> x[0][0] x[10][5] </args>
      <args> x[0][0] x[10][0] </args>
      <args> x[0][0] x[5][0] </args>
      <args> x[0][5] x[5][0] </args>
    </group>
  </constraints>
</instance>
